NAME          ClpDefau
ROWS
 N  OBJROW
 L  R_84_0
 L  R_84_1
 L  R_84_2
 L  R_84_3
 L  R_84_4
 L  R_84_5
 L  R_84_6
 L  R_84_7
COLUMNS
    x_0       OBJROW     -8.           R_84_2    88.         
    x_0       R_84_3    56.         
    x_1       OBJROW     -12.       
    x_2       OBJROW     -11.          R_84_2    23.         
    x_2       R_84_4    42.            R_84_5    66.         
    x_3       OBJROW     -47.          R_84_1    58.         
    x_4       OBJROW     -22.          R_84_2    97.         
    x_5       OBJROW     -95.       
    x_6       OBJROW     -86.       
    x_7       OBJROW     -40.       
RHS
    RHS       R_84_0    93.            R_84_1    89.         
    RHS       R_84_2    103.           R_84_3    86.         
    RHS       R_84_4    95.            R_84_5    96.         
    RHS       R_84_6    91.            R_84_7    101.        
BOUNDS
 UI BOUND     x_0       100.        
 UI BOUND     x_1       100.        
 UI BOUND     x_2       100.        
 UI BOUND     x_3       100.        
 UI BOUND     x_4       100.        
 UI BOUND     x_5       100.        
 UI BOUND     x_6       100.        
 UI BOUND     x_7       100.        
ENDATA
